39012 38179 
38678 38497 
38464 38707 
38293 38905 
39397 37771 
39249 37998 
38884 38351 
39724 37622 
38915 38290 
37841 39094 
37989 38988 
39852 37253 
39820 37283 
39181 38099 
39212 38038 
39272 37811 
40081 36907 
37222 39350 
37773 39195 
37804 39134 
39752 37384 
39783 37323 
40261 36497 
39966 37055 
37469 39278 
37048 39512 
37500 39217 
40226 36670 
40232 36597 
40116 36773 
39033 38110 
36338 39535 
37417 39306 
40195 36748 
40313 36342 
40575 35337 
39855 37243 
39539 37753 
39887 37184 
40360 36295 
35468 39594 
40037 37014 
40604 34835 
40612 34656 
38991 38281 
38820 38479 
40467 36273 
40561 35808 
40499 36214 
40514 35855 
